unsat
( c100
  c1000
  c1002
  c1008
  c1009
  c1010
  c1012
  c1013
  c1014
  c1015
  c1016
  c1018
  c1019
  c1020
  c1021
  c1022
  c1023
  c1031
  c1034
  c1044
  c1047
  c1051
  c1052
  c1053
  c1057
  c106
  c1060
  c1063
  c1074
  c1075
  c1076
  c1082
  c1084
  c1090
  c1091
  c1092
  c1094
  c1095
  c1096
  c1097
  c1098
  c1099
  c110
  c1100
  c1101
  c1102
  c1103
  c1104
  c1105
  c1113
  c1114
  c1116
  c1126
  c1129
  c113
  c1133
  c1134
  c1135
  c1139
  c1142
  c1144
  c1145
  c115
  c1151
  c1156
  c1157
  c116
  c1164
  c1166
  c1172
  c1173
  c1174
  c1176
  c1177
  c1179
  c1180
  c1181
  c1182
  c1183
  c1184
  c1185
  c1186
  c1187
  c1195
  c1198
  c1208
  c1211
  c1215
  c1216
  c1217
  c1221
  c1224
  c1227
  c1238
  c1239
  c124
  c1240
  c1246
  c1248
  c1254
  c1255
  c1256
  c1257
  c1258
  c1259
  c1261
  c1262
  c1263
  c1264
  c1265
  c1266
  c1267
  c1268
  c1269
  c1277
  c1278
  c128
  c1288
  c1292
  c1296
  c13
  c1300
  c1304
  c1308
  c1312
  c1316
  c1320
  c1324
  c1328
  c1332
  c1337
  c135
  c136
  c137
  c1375
  c1377
  c1379
  c1381
  c1391
  c1393
  c1395
  c1397
  c1399
  c1400
  c1408
  c1409
  c1410
  c1411
  c1412
  c1413
  c1414
  c1415
  c1416
  c1417
  c1418
  c1419
  c1420
  c1421
  c1423
  c1425
  c1426
  c1427
  c1428
  c143
  c1432
  c1436
  c1440
  c1444
  c1448
  c145
  c1452
  c1456
  c1460
  c1464
  c1468
  c1470
  c1471
  c1473
  c1474
  c1479
  c1480
  c1481
  c1483
  c1486
  c1489
  c1490
  c1491
  c1492
  c1496
  c1499
  c15
  c1501
  c1502
  c1504
  c1505
  c151
  c1510
  c1514
  c1516
  c1518
  c152
  c1521
  c1522
  c1523
  c1529
  c153
  c1531
  c1534
  c1537
  c1538
  c1539
  c1540
  c1541
  c1542
  c1543
  c1544
  c1545
  c1546
  c1547
  c1548
  c1549
  c155
  c1550
  c1551
  c1552
  c156
  c1560
  c1561
  c1563
  c1564
  c1569
  c1571
  c1573
  c1576
  c1579
  c158
  c1581
  c1582
  c1586
  c1589
  c159
  c1591
  c1592
  c1594
  c1595
  c1598
  c1600
  c1603
  c1604
  c161
  c1611
  c1613
  c1616
  c1619
  c162
  c1620
  c1621
  c1622
  c1623
  c1624
  c1625
  c1626
  c1627
  c1628
  c1629
  c1630
  c1631
  c1632
  c1633
  c1634
  c164
  c1642
  c1643
  c1645
  c165
  c1652
  c1653
  c1655
  c1658
  c1662
  c1663
  c1664
  c1668
  c1671
  c1673
  c1674
  c1676
  c1677
  c1682
  c1685
  c1686
  c1687
  c1693
  c1695
  c1698
  c17
  c1701
  c1702
  c1703
  c1704
  c1705
  c1706
  c1707
  c1708
  c1709
  c1710
  c1711
  c1712
  c1713
  c1714
  c1715
  c1716
  c1724
  c1725
  c1727
  c1734
  c1735
  c1737
  c174
  c1740
  c1744
  c1745
  c1746
  c1750
  c1753
  c1756
  c1758
  c1759
  c176
  c1764
  c1767
  c1768
  c1769
  c177
  c1775
  c1777
  c1780
  c1783
  c1784
  c1785
  c1786
  c1787
  c1788
  c1789
  c1790
  c1791
  c1792
  c1793
  c1794
  c1795
  c1796
  c1797
  c1798
  c1806
  c1807
  c1809
  c1810
  c1815
  c1816
  c1817
  c1819
  c1822
  c1825
  c1826
  c1827
  c1828
  c1832
  c1835
  c1837
  c1838
  c1840
  c1841
  c1844
  c1846
  c1849
  c1850
  c1851
  c1857
  c1859
  c1862
  c1865
  c1866
  c1867
  c1868
  c1869
  c187
  c1870
  c1871
  c1872
  c1873
  c1874
  c1875
  c1876
  c1877
  c1878
  c1879
  c1880
  c1888
  c1889
  c1891
  c1898
  c190
  c1900
  c1901
  c1904
  c1907
  c1908
  c1909
  c1910
  c1914
  c1917
  c1919
  c1920
  c1922
  c1923
  c1926
  c1928
  c1931
  c1932
  c1933
  c1939
  c1941
  c1944
  c1947
  c1948
  c1949
  c1950
  c1951
  c1952
  c1953
  c1954
  c1955
  c1956
  c1957
  c1958
  c1959
  c196
  c1960
  c1961
  c1962
  c1970
  c1971
  c1981
  c1985
  c1989
  c1993
  c1997
  c200
  c2001
  c2005
  c2009
  c2013
  c2017
  c2021
  c2025
  c2028
  c2029
  c203
  c2032
  c2038
  c2042
  c2043
  c2045
  c2046
  c2047
  c2048
  c2049
  c205
  c2054
  c2055
  c2056
  c2057
  c2058
  c2059
  c206
  c2060
  c2061
  c2062
  c2063
  c2068
  c2070
  c2072
  c2074
  c2076
  c2077
  c2084
  c2086
  c2088
  c2090
  c2092
  c2093
  c2101
  c2102
  c2103
  c2104
  c2105
  c2106
  c2107
  c2108
  c2109
  c2110
  c2111
  c2112
  c2113
  c2114
  c2115
  c2116
  c2117
  c2118
  c2119
  c212
  c2120
  c2121
  c2125
  c2128
  c2129
  c2133
  c2137
  c2141
  c2145
  c2149
  c2152
  c2153
  c2157
  c2160
  c2161
  c2164
  c2166
  c2168
  c217
  c2172
  c2173
  c2174
  c2176
  c2177
  c218
  c2182
  c2183
  c2184
  c2185
  c2186
  c2189
  c2192
  c2194
  c2195
  c2197
  c2198
  c2203
  c2206
  c2207
  c2209
  c2211
  c2213
  c2214
  c2215
  c2216
  c2222
  c2224
  c2227
  c2230
  c2231
  c2232
  c2233
  c2234
  c2235
  c2236
  c2237
  c2238
  c2239
  c2240
  c2241
  c2242
  c2243
  c2244
  c2245
  c225
  c2253
  c2254
  c2256
  c2258
  c2262
  c2264
  c2266
  c2268
  c2269
  c227
  c2272
  c2274
  c2275
  c2276
  c2279
  c2282
  c2284
  c2285
  c2288
  c2291
  c2293
  c2295
  c2296
  c2297
  c2304
  c2306
  c2309
  c2312
  c2313
  c2314
  c2315
  c2316
  c2317
  c2318
  c2319
  c2320
  c2321
  c2322
  c2323
  c2324
  c2325
  c2326
  c2327
  c233
  c2335
  c2336
  c2338
  c234
  c2345
  c2346
  c2348
  c235
  c2355
  c2356
  c2357
  c2361
  c2364
  c2366
  c2367
  c2369
  c237
  c2370
  c2373
  c2375
  c2378
  c2379
  c238
  c2380
  c2386
  c2388
  c2391
  c2394
  c2395
  c2396
  c2397
  c2398
  c2399
  c24
  c240
  c2400
  c2401
  c2402
  c2403
  c2404
  c2405
  c2406
  c2407
  c2408
  c2409
  c241
  c2417
  c2418
  c2420
  c2427
  c2428
  c243
  c2430
  c2437
  c2438
  c2439
  c244
  c2443
  c2446
  c2449
  c2451
  c2452
  c2455
  c2457
  c246
  c2460
  c2461
  c2462
  c2468
  c247
  c2470
  c2473
  c2476
  c2477
  c2478
  c2479
  c2480
  c2481
  c2482
  c2483
  c2484
  c2485
  c2486
  c2487
  c2488
  c2489
  c2490
  c2491
  c2499
  c25
  c2500
  c2502
  c2503
  c2509
  c2510
  c2511
  c2512
  c2518
  c2519
  c2520
  c2521
  c2522
  c2525
  c2528
  c2530
  c2531
  c2533
  c2534
  c2537
  c2539
  c2541
  c2542
  c2543
  c2544
  c2550
  c2552
  c2555
  c2558
  c2559
  c256
  c2560
  c2561
  c2562
  c2563
  c2564
  c2565
  c2566
  c2567
  c2568
  c2569
  c257
  c2570
  c2571
  c2572
  c2573
  c2581
  c2582
  c2584
  c2585
  c259
  c2591
  c2592
  c2593
  c2594
  c26
  c2600
  c2601
  c2602
  c2603
  c2604
  c2607
  c2610
  c2612
  c2613
  c2615
  c2616
  c2619
  c2621
  c2623
  c2624
  c2625
  c2626
  c2632
  c2634
  c2637
  c2640
  c2641
  c2642
  c2643
  c2644
  c2645
  c2646
  c2647
  c2648
  c2649
  c2650
  c2651
  c2652
  c2653
  c2654
  c2655
  c2663
  c2664
  c2674
  c2678
  c2682
  c2685
  c2686
  c269
  c2690
  c2694
  c2698
  c27
  c2702
  c2706
  c2710
  c2714
  c2718
  c272
  c2725
  c2727
  c2728
  c2735
  c2736
  c2737
  c2738
  c2739
  c2740
  c2741
  c2742
  c2747
  c2748
  c2749
  c2750
  c2751
  c2752
  c2755
  c2756
  c2757
  c2761
  c2763
  c2765
  c2767
  c2769
  c2770
  c2777
  c2779
  c278
  c2781
  c2783
  c2785
  c2786
  c2794
  c2795
  c2796
  c2797
  c2798
  c2799
  c28
  c2800
  c2801
  c2802
  c2803
  c2804
  c2805
  c2806
  c2807
  c2808
  c2809
  c2810
  c2811
  c2812
  c2813
  c2814
  c2818
  c282
  c2821
  c2822
  c2826
  c2830
  c2834
  c2838
  c2842
  c2846
  c285
  c2850
  c2854
  c2856
  c2857
  c2858
  c2866
  c2867
  c2868
  c2869
  c287
  c2876
  c2877
  c2878
  c2879
  c288
  c2882
  c2885
  c2888
  c2890
  c2891
  c2896
  c29
  c2900
  c2902
  c2903
  c2906
  c2907
  c2908
  c2909
  c2915
  c2917
  c2919
  c2920
  c2923
  c2924
  c2925
  c2926
  c2927
  c2928
  c2929
  c2930
  c2931
  c2932
  c2933
  c2934
  c2935
  c2936
  c2937
  c2938
  c2946
  c2947
  c2948
  c2956
  c2958
  c2959
  c2962
  c2965
  c2967
  c2968
  c2969
  c2972
  c2975
  c2978
  c2981
  c2984
  c2986
  c2988
  c2989
  c299
  c2990
  c2997
  c2998
  c2999
  c30
  c300
  c3001
  c3005
  c3006
  c3007
  c3008
  c3009
  c301
  c3010
  c3011
  c3012
  c3013
  c3014
  c3015
  c3016
  c3017
  c3018
  c3019
  c3020
  c3028
  c3029
  c3030
  c3038
  c3039
  c3041
  c3048
  c3049
  c3050
  c3054
  c3057
  c3060
  c3062
  c3063
  c3066
  c3068
  c3071
  c3072
  c3073
  c3079
  c3081
  c3083
  c3084
  c3087
  c3088
  c3089
  c309
  c3090
  c3091
  c3092
  c3093
  c3094
  c3095
  c3096
  c3097
  c3098
  c3099
  c31
  c3100
  c3101
  c3102
  c3110
  c3111
  c3112
  c312
  c3120
  c3121
  c3123
  c3130
  c3131
  c3132
  c3136
  c3139
  c3142
  c3144
  c3145
  c3148
  c315
  c3150
  c3153
  c3154
  c3155
  c316
  c3161
  c3163
  c3165
  c3166
  c3169
  c317
  c3170
  c3171
  c3172
  c3173
  c3174
  c3175
  c3176
  c3177
  c3178
  c3179
  c3180
  c3181
  c3182
  c3183
  c3184
  c319
  c3192
  c3193
  c3194
  c32
  c320
  c3202
  c3203
  c3204
  c3212
  c3213
  c3215
  c3218
  c322
  c3221
  c3224
  c3226
  c3227
  c323
  c3230
  c3232
  c3234
  c3235
  c3236
  c3237
  c3243
  c3245
  c3247
  c3248
  c325
  c3251
  c3252
  c3253
  c3254
  c3255
  c3256
  c3257
  c3258
  c3259
  c326
  c3260
  c3261
  c3262
  c3263
  c3264
  c3265
  c3266
  c3274
  c3275
  c3277
  c328
  c3284
  c3285
  c3286
  c3287
  c329
  c3294
  c3295
  c3296
  c3297
  c33
  c3300
  c3303
  c3306
  c3308
  c3309
  c3312
  c3313
  c3316
  c3317
  c3318
  c3319
  c3325
  c3327
  c3329
  c3330
  c3333
  c3334
  c3335
  c3336
  c3337
  c3338
  c3339
  c3340
  c3341
  c3342
  c3343
  c3344
  c3345
  c3346
  c3347
  c3348
  c3356
  c3357
  c3367
  c3371
  c3375
  c3378
  c3379
  c338
  c3383
  c3387
  c3391
  c3395
  c3399
  c34
  c3403
  c3407
  c341
  c3411
  c3413
  c3418
  c3420
  c3421
  c3428
  c3429
  c3430
  c3431
  c3432
  c3433
  c3434
  c3435
  c3440
  c3441
  c3442
  c3443
  c3444
  c3445
  c3446
  c3448
  c3449
  c3454
  c3456
  c3458
  c3460
  c3462
  c3463
  c3470
  c3472
  c3474
  c3476
  c3478
  c3479
  c3487
  c3488
  c3489
  c3490
  c3491
  c3492
  c3493
  c3494
  c3495
  c3496
  c3497
  c3498
  c3499
  c35
  c3500
  c3501
  c3502
  c3503
  c3504
  c3505
  c3506
  c3507
  c351
  c3511
  c3514
  c3515
  c3519
  c3523
  c3527
  c3531
  c3535
  c3539
  c354
  c3543
  c3547
  c3549
  c3550
  c3559
  c3561
  c3569
  c3570
  c3574
  c3575
  c3578
  c3580
  c3581
  c3583
  c3584
  c3589
  c3593
  c3595
  c3597
  c36
  c360
  c3600
  c3601
  c3602
  c3607
  c3608
  c3610
  c3612
  c3613
  c3616
  c3617
  c3618
  c3619
  c3620
  c3621
  c3622
  c3623
  c3624
  c3625
  c3626
  c3627
  c3628
  c3629
  c3630
  c3631
  c3639
  c364
  c3640
  c3648
  c3650
  c3652
  c3655
  c3658
  c3660
  c3661
  c3664
  c3665
  c3668
  c367
  c3671
  c3674
  c3677
  c3678
  c3682
  c3683
  c3690
  c3691
  c3692
  c3694
  c3698
  c3699
  c37
  c370
  c3700
  c3701
  c3702
  c3703
  c3704
  c3705
  c3706
  c3707
  c3708
  c3709
  c3710
  c3711
  c3712
  c3713
  c3721
  c3722
  c3731
  c3733
  c3741
  c3742
  c3746
  c3747
  c3750
  c3753
  c3755
  c3756
  c3759
  c376
  c3760
  c3764
  c3765
  c3766
  c3772
  c3774
  c3776
  c3777
  c3780
  c3781
  c3782
  c3783
  c3784
  c3785
  c3786
  c3787
  c3788
  c3789
  c3790
  c3791
  c3792
  c3793
  c3794
  c3795
  c38
  c3803
  c3804
  c381
  c3813
  c3815
  c382
  c3823
  c3824
  c3828
  c3829
  c3832
  c3835
  c3837
  c3838
  c3841
  c3842
  c3846
  c3847
  c3848
  c3854
  c3856
  c3858
  c3859
  c3862
  c3863
  c3864
  c3865
  c3866
  c3867
  c3868
  c3869
  c3870
  c3871
  c3872
  c3873
  c3874
  c3875
  c3876
  c3877
  c3885
  c3886
  c389
  c3895
  c3897
  c39
  c3905
  c3906
  c391
  c3910
  c3911
  c3917
  c3919
  c3920
  c3923
  c3924
  c3928
  c3929
  c3930
  c3936
  c3938
  c3940
  c3941
  c3944
  c3945
  c3946
  c3947
  c3948
  c3949
  c3950
  c3951
  c3952
  c3953
  c3954
  c3955
  c3956
  c3957
  c3958
  c3959
  c3967
  c3968
  c397
  c3977
  c3979
  c398
  c3987
  c3988
  c399
  c3993
  c3996
  c3999
  c40
  c4001
  c4002
  c4005
  c4006
  c401
  c4010
  c4011
  c4012
  c4018
  c402
  c4020
  c4022
  c4023
  c4026
  c4027
  c4028
  c4029
  c4030
  c4031
  c4032
  c4033
  c4034
  c4035
  c4036
  c4037
  c4038
  c4039
  c404
  c4040
  c4041
  c4049
  c405
  c4050
  c4060
  c4064
  c4068
  c407
  c4071
  c4072
  c4076
  c408
  c4080
  c4084
  c4088
  c4092
  c4096
  c41
  c410
  c4100
  c4104
  c4105
  c4106
  c411
  c4111
  c4113
  c4114
  c4121
  c4122
  c4123
  c4124
  c4125
  c4127
  c4128
  c4133
  c4134
  c4135
  c4136
  c4137
  c4138
  c4141
  c4142
  c4147
  c4149
  c4151
  c4153
  c4155
  c4156
  c4163
  c4165
  c4167
  c4169
  c4171
  c4172
  c4180
  c4181
  c4182
  c4183
  c4184
  c4185
  c4186
  c4187
  c4188
  c4189
  c4190
  c4191
  c4192
  c4193
  c4194
  c4195
  c4196
  c4197
  c4198
  c4199
  c42
  c420
  c4200
  c4204
  c4207
  c4208
  c421
  c4212
  c4216
  c4220
  c4224
  c4228
  c423
  c4232
  c4236
  c4240
  c4242
  c4243
  c4252
  c4254
  c4262
  c4263
  c4271
  c4274
  c4276
  c4277
  c4282
  c4286
  c4288
  c4293
  c4294
  c4295
  c4301
  c4303
  c4305
  c4306
  c4309
  c4310
  c4311
  c4312
  c4313
  c4314
  c4315
  c4316
  c4317
  c4318
  c4319
  c4320
  c4321
  c4322
  c4323
  c4324
  c433
  c4332
  c4333
  c4342
  c4343
  c4353
  c4354
  c436
  c4361
  c4364
  c4365
  c4367
  c4370
  c4375
  c4376
  c4383
  c4384
  c4385
  c4387
  c4391
  c4392
  c4393
  c4394
  c4395
  c4396
  c4397
  c4398
  c4399
  c4400
  c4401
  c4402
  c4403
  c4404
  c4405
  c4406
  c4414
  c4415
  c442
  c4424
  c4426
  c4434
  c4435
  c4443
  c4446
  c4448
  c4449
  c4452
  c4457
  c4458
  c4459
  c446
  c4465
  c4467
  c4469
  c4470
  c4473
  c4474
  c4475
  c4476
  c4477
  c4478
  c4479
  c4480
  c4481
  c4482
  c4483
  c4484
  c4485
  c4486
  c4487
  c4488
  c449
  c4496
  c4497
  c4506
  c4508
  c451
  c4516
  c4517
  c452
  c4525
  c4528
  c4530
  c4531
  c4534
  c4539
  c4540
  c4541
  c4547
  c4549
  c4551
  c4552
  c4555
  c4556
  c4557
  c4558
  c4559
  c4560
  c4561
  c4562
  c4563
  c4564
  c4565
  c4566
  c4567
  c4568
  c4569
  c4570
  c4578
  c4579
  c458
  c4588
  c4590
  c4598
  c4599
  c46
  c4607
  c4610
  c4612
  c4613
  c4616
  c4621
  c4622
  c4623
  c4629
  c463
  c4631
  c4633
  c4634
  c4637
  c4638
  c4639
  c464
  c4640
  c4641
  c4642
  c4643
  c4644
  c4645
  c4646
  c4647
  c4648
  c4649
  c4650
  c4651
  c4652
  c4660
  c4661
  c4670
  c4671
  c4680
  c4681
  c4689
  c4692
  c4694
  c4695
  c4698
  c4703
  c4704
  c4705
  c471
  c4711
  c4713
  c4715
  c4716
  c4719
  c4720
  c4721
  c4722
  c4723
  c4724
  c4725
  c4726
  c4727
  c4728
  c4729
  c473
  c4730
  c4731
  c4732
  c4733
  c4734
  c4742
  c4743
  c4753
  c4757
  c4761
  c4764
  c4765
  c4769
  c4773
  c4777
  c4781
  c4785
  c4789
  c479
  c4793
  c4797
  c480
  c481
  c483
  c484
  c4840
  c4842
  c4844
  c4846
  c4848
  c4849
  c4856
  c4858
  c486
  c4860
  c4862
  c4864
  c4865
  c487
  c4873
  c4874
  c4875
  c4876
  c4877
  c4878
  c4879
  c4880
  c4881
  c4882
  c4883
  c4884
  c4885
  c4886
  c4887
  c4888
  c4889
  c489
  c4890
  c4891
  c4892
  c4893
  c4897
  c490
  c4901
  c4905
  c4909
  c4913
  c4917
  c492
  c4921
  c4925
  c4929
  c493
  c4933
  c4936
  c4945
  c4955
  c4964
  c4966
  c4967
  c4969
  c4970
  c4975
  c4979
  c4984
  c4996
  c4998
  c4999
  c50
  c5002
  c5003
  c5004
  c5005
  c5006
  c5007
  c5008
  c5009
  c5010
  c5011
  c5012
  c5013
  c5014
  c5015
  c5016
  c5017
  c502
  c5026
  c5035
  c5045
  c505
  c5054
  c5056
  c5057
  c5060
  c5066
  c5077
  c5078
  c5079
  c5080
  c5084
  c5085
  c5086
  c5087
  c5088
  c5089
  c5090
  c5091
  c5092
  c5093
  c5094
  c5095
  c5096
  c5097
  c5098
  c5099
  c5108
  c5117
  c5127
  c5136
  c5138
  c5139
  c5141
  c5142
  c5148
  c515
  c5160
  c5162
  c5163
  c5166
  c5167
  c5168
  c5169
  c5170
  c5171
  c5172
  c5173
  c5174
  c5175
  c5176
  c5177
  c5178
  c5179
  c518
  c5180
  c5181
  c5190
  c5199
  c5209
  c5218
  c5220
  c5221
  c5223
  c5224
  c5230
  c524
  c5242
  c5244
  c5245
  c5248
  c5249
  c5250
  c5251
  c5252
  c5253
  c5254
  c5255
  c5256
  c5257
  c5258
  c5259
  c5260
  c5261
  c5262
  c5263
  c5272
  c528
  c5281
  c5291
  c5300
  c5302
  c5303
  c5305
  c5306
  c531
  c5312
  c5324
  c5326
  c5327
  c5330
  c5331
  c5332
  c5333
  c5334
  c5335
  c5336
  c5337
  c5338
  c5339
  c534
  c5340
  c5341
  c5342
  c5343
  c5344
  c5345
  c5354
  c5363
  c5373
  c5382
  c5384
  c5385
  c5387
  c5388
  c5394
  c54
  c540
  c5406
  c5408
  c5409
  c5412
  c5413
  c5414
  c5415
  c5416
  c5417
  c5418
  c5419
  c5420
  c5421
  c5422
  c5423
  c5424
  c5425
  c5426
  c5427
  c5435
  c5436
  c5446
  c545
  c5450
  c5454
  c5458
  c546
  c5462
  c5466
  c5470
  c5474
  c5478
  c5482
  c5486
  c5490
  c553
  c5533
  c5535
  c5537
  c5539
  c5541
  c5542
  c5549
  c555
  c5551
  c5553
  c5555
  c5557
  c5558
  c5566
  c5567
  c5568
  c5569
  c5570
  c5571
  c5572
  c5573
  c5574
  c5575
  c5576
  c5577
  c5578
  c5579
  c5580
  c5581
  c5582
  c5583
  c5584
  c5585
  c5586
  c5590
  c5594
  c5598
  c5602
  c5606
  c561
  c5610
  c5614
  c5618
  c562
  c5622
  c5626
  c5629
  c563
  c5638
  c5648
  c565
  c5657
  c5659
  c566
  c5668
  c5672
  c5677
  c568
  c5689
  c569
  c5690
  c5691
  c5692
  c5695
  c5696
  c5697
  c5698
  c5699
  c5700
  c5701
  c5702
  c5703
  c5704
  c5705
  c5706
  c5707
  c5708
  c5709
  c571
  c5710
  c5719
  c572
  c5728
  c5738
  c574
  c5747
  c5749
  c575
  c5759
  c5771
  c5772
  c5773
  c5774
  c5777
  c5778
  c5779
  c5780
  c5781
  c5782
  c5783
  c5784
  c5785
  c5786
  c5787
  c5788
  c5789
  c5790
  c5791
  c5792
  c58
  c5801
  c5810
  c5820
  c5829
  c5831
  c584
  c5841
  c5853
  c5854
  c5855
  c5856
  c5859
  c5860
  c5861
  c5862
  c5863
  c5864
  c5865
  c5866
  c5867
  c5868
  c5869
  c5870
  c5871
  c5872
  c5873
  c5874
  c5883
  c5892
  c5902
  c5911
  c5913
  c5923
  c5935
  c5936
  c5937
  c5938
  c5941
  c5942
  c5943
  c5944
  c5945
  c5946
  c5947
  c5948
  c5949
  c595
  c5950
  c5951
  c5952
  c5953
  c5954
  c5955
  c5956
  c5965
  c5974
  c5984
  c599
  c5993
  c5995
  c6
  c6005
  c6017
  c6018
  c6019
  c6020
  c6023
  c6024
  c6025
  c6026
  c6027
  c6028
  c6029
  c603
  c6030
  c6031
  c6032
  c6033
  c6034
  c6035
  c6036
  c6037
  c6038
  c6047
  c6056
  c6066
  c607
  c6075
  c6077
  c6087
  c6099
  c6100
  c6101
  c6102
  c6105
  c6106
  c6107
  c6108
  c6109
  c611
  c6110
  c6111
  c6112
  c6113
  c6114
  c6115
  c6116
  c6117
  c6118
  c6119
  c6120
  c6128
  c6129
  c6139
  c6143
  c6147
  c615
  c6151
  c6155
  c6159
  c6163
  c6167
  c6171
  c6175
  c6179
  c6183
  c619
  c62
  c6226
  c6228
  c623
  c6230
  c6232
  c6234
  c6235
  c6242
  c6244
  c6246
  c6248
  c6250
  c6251
  c6259
  c6260
  c6261
  c6262
  c6263
  c6264
  c6265
  c6266
  c6267
  c6268
  c6269
  c627
  c6270
  c6271
  c6272
  c6273
  c6274
  c6275
  c6276
  c6277
  c6278
  c6279
  c6283
  c6287
  c6291
  c6295
  c6299
  c6303
  c6307
  c631
  c6311
  c6315
  c6319
  c6321
  c6331
  c6341
  c635
  c6350
  c6361
  c6365
  c6370
  c6382
  c6383
  c6384
  c6385
  c6388
  c6389
  c639
  c6390
  c6392
  c6393
  c6395
  c6396
  c6398
  c6399
  c6401
  c6402
  c6411
  c6421
  c6431
  c6440
  c6452
  c6464
  c6465
  c6466
  c6467
  c6470
  c6471
  c6472
  c6474
  c6475
  c6477
  c6478
  c6480
  c6481
  c6483
  c6484
  c6493
  c6503
  c6513
  c6522
  c6534
  c6546
  c6547
  c6548
  c6549
  c6552
  c6553
  c6554
  c6556
  c6557
  c6559
  c6560
  c6562
  c6563
  c6565
  c6566
  c6575
  c6585
  c6595
  c66
  c6604
  c6616
  c6628
  c6629
  c6630
  c6631
  c6634
  c6635
  c6636
  c6638
  c6639
  c6641
  c6642
  c6644
  c6645
  c6647
  c6648
  c6657
  c6667
  c6677
  c6686
  c6698
  c6710
  c6711
  c6712
  c6713
  c6716
  c6717
  c6718
  c6720
  c6721
  c6723
  c6724
  c6726
  c6727
  c6729
  c6730
  c6739
  c6749
  c6759
  c6768
  c6780
  c6792
  c6793
  c6794
  c6795
  c6798
  c6799
  c6800
  c6802
  c6803
  c6805
  c6806
  c6808
  c6809
  c6811
  c6812
  c6821
  c6822
  c6877
  c6878
  c6879
  c6880
  c6883
  c6884
  c6885
  c6886
  c6887
  c6888
  c6893
  c6894
  c6895
  c6896
  c6897
  c6898
  c6899
  c6900
  c6905
  c6906
  c6907
  c6908
  c6909
  c6910
  c6911
  c6912
  c6913
  c6914
  c6935
  c6937
  c6939
  c6941
  c6943
  c6944
  c6952
  c6966
  c6967
  c6968
  c6969
  c6970
  c6971
  c70
  c7015
  c7025
  c7035
  c7045
  c7063
  c7072
  c7081
  c7105
  c7115
  c7125
  c7135
  c7145
  c7154
  c7163
  c717
  c718
  c7187
  c719
  c7197
  c720
  c7207
  c721
  c7217
  c722
  c7227
  c723
  c7236
  c724
  c7245
  c725
  c726
  c7269
  c727
  c7279
  c728
  c7289
  c7299
  c7309
  c7318
  c7327
  c735
  c7351
  c7360
  c7370
  c7379
  c739
  c7391
  c74
  c7400
  c7409
  c743
  c7433
  c7443
  c7453
  c7463
  c747
  c7473
  c7482
  c7491
  c751
  c7514
  c7515
  c7525
  c7529
  c7533
  c7537
  c7541
  c7545
  c7549
  c755
  c7553
  c7557
  c7561
  c7565
  c7569
  c7572
  c7573
  c7574
  c7576
  c7577
  c7578
  c7579
  c7580
  c7581
  c7587
  c7588
  c7589
  c759
  c7590
  c7591
  c7592
  c7593
  c7598
  c7600
  c7601
  c7602
  c7603
  c7604
  c7606
  c7612
  c7614
  c7616
  c7618
  c7620
  c7621
  c763
  c7646
  c7647
  c7648
  c7649
  c7650
  c7651
  c7652
  c7653
  c7654
  c7655
  c7656
  c7657
  c7658
  c7659
  c7660
  c7661
  c7662
  c7663
  c7664
  c7665
  c7667
  c767
  c7671
  c7675
  c7679
  c7683
  c7687
  c7690
  c7694
  c7698
  c7702
  c7706
  c771
  c7710
  c7715
  c7719
  c7723
  c7727
  c7731
  c7735
  c7739
  c7743
  c7747
  c775
  c7751
  c7755
  c7759
  c7762
  c7763
  c7766
  c7767
  c777
  c7770
  c7771
  c7774
  c7775
  c7778
  c7779
  c778
  c7782
  c7783
  c7786
  c7787
  c7790
  c7791
  c7794
  c7795
  c7798
  c7799
  c78
  c780
  c7802
  c7803
  c7806
  c7807
  c7810
  c7811
  c7812
  c7814
  c7815
  c7816
  c7818
  c7819
  c7820
  c7822
  c7823
  c7824
  c7826
  c7827
  c7828
  c7830
  c7831
  c7832
  c7834
  c7835
  c7836
  c7838
  c7839
  c7840
  c7842
  c7843
  c7844
  c7846
  c7847
  c7848
  c7850
  c7851
  c7852
  c7854
  c7855
  c7856
  c7858
  c7859
  c7860
  c7862
  c7863
  c7864
  c7866
  c7867
  c7868
  c7870
  c7871
  c7872
  c7874
  c7875
  c7876
  c7878
  c7879
  c7880
  c7882
  c7883
  c7884
  c7886
  c7887
  c7888
  c7890
  c7891
  c7892
  c7894
  c7895
  c7896
  c7898
  c7899
  c790
  c7900
  c7902
  c7903
  c7904
  c7906
  c7907
  c7908
  c7910
  c7911
  c7912
  c7914
  c7915
  c7916
  c7918
  c7919
  c7920
  c7922
  c7923
  c7924
  c7926
  c7927
  c7928
  c793
  c7930
  c7931
  c7932
  c7934
  c7935
  c7936
  c7938
  c7939
  c7940
  c7942
  c7943
  c7944
  c7945
  c7946
  c7947
  c7948
  c7949
  c7951
  c7952
  c7953
  c7954
  c7955
  c7956
  c7957
  c7958
  c7960
  c7961
  c7963
  c7964
  c797
  c798
  c799
  c803
  c806
  c808
  c809
  c817
  c82
  c821
  c823
  c828
  c829
  c836
  c838
  c84
  c844
  c845
  c846
  c848
  c849
  c85
  c850
  c851
  c852
  c854
  c855
  c856
  c857
  c858
  c859
  c867
  c868
  c87
  c870
  c880
  c883
  c887
  c888
  c889
  c893
  c896
  c898
  c899
  c905
  c910
  c911
  c918
  c920
  c926
  c927
  c928
  c930
  c931
  c932
  c933
  c934
  c936
  c937
  c938
  c939
  c940
  c941
  c949
  c950
  c952
  c962
  c965
  c969
  c97
  c970
  c971
  c975
  c978
  c980
  c981
  c987
  c992
  c993 )
